c File: flat30_3_0.col 0
c 0 0 0
c SOURCE: Joseph Culberson (joe@cs.ualberta.ca)
c DESCRIPTION: Quasi-random coloring problem
c              generated with flatness = 0
c                             probability = 0.200
c                             known coloring = 3
c                             random seed = 228858
c              Creation Date:  Fri Nov 29 22:01:40 1996
c Maximum degree = 6 Minimum degree = 2
c 0 0 0
c cnf created by edge2cnf
p cnf 90 300
-1 -2 0 0
-1 -3 0 0
-2 -3 0 0
1 2 3 0
-4 -5 0 0
-4 -6 0 0
-5 -6 0 0
4 5 6 0
-7 -8 0 0
-7 -9 0 0
-8 -9 0 0
7 8 9 0
-10 -11 0 0
-10 -12 0 0
-11 -12 0 0
10 11 12 0
-13 -14 0 0
-13 -15 0 0
-14 -15 0 0
13 14 15 0
-16 -17 0 0
-16 -18 0 0
-17 -18 0 0
16 17 18 0
-19 -20 0 0
-19 -21 0 0
-20 -21 0 0
19 20 21 0
-22 -23 0 0
-22 -24 0 0
-23 -24 0 0
22 23 24 0
-25 -26 0 0
-25 -27 0 0
-26 -27 0 0
25 26 27 0
-28 -29 0 0
-28 -30 0 0
-29 -30 0 0
28 29 30 0
-31 -32 0 0
-31 -33 0 0
-32 -33 0 0
31 32 33 0
-34 -35 0 0
-34 -36 0 0
-35 -36 0 0
34 35 36 0
-37 -38 0 0
-37 -39 0 0
-38 -39 0 0
37 38 39 0
-40 -41 0 0
-40 -42 0 0
-41 -42 0 0
40 41 42 0
-43 -44 0 0
-43 -45 0 0
-44 -45 0 0
43 44 45 0
-46 -47 0 0
-46 -48 0 0
-47 -48 0 0
46 47 48 0
-49 -50 0 0
-49 -51 0 0
-50 -51 0 0
49 50 51 0
-52 -53 0 0
-52 -54 0 0
-53 -54 0 0
52 53 54 0
-55 -56 0 0
-55 -57 0 0
-56 -57 0 0
55 56 57 0
-58 -59 0 0
-58 -60 0 0
-59 -60 0 0
58 59 60 0
-61 -62 0 0
-61 -63 0 0
-62 -63 0 0
61 62 63 0
-64 -65 0 0
-64 -66 0 0
-65 -66 0 0
64 65 66 0
-67 -68 0 0
-67 -69 0 0
-68 -69 0 0
67 68 69 0
-70 -71 0 0
-70 -72 0 0
-71 -72 0 0
70 71 72 0
-73 -74 0 0
-73 -75 0 0
-74 -75 0 0
73 74 75 0
-76 -77 0 0
-76 -78 0 0
-77 -78 0 0
76 77 78 0
-79 -80 0 0
-79 -81 0 0
-80 -81 0 0
79 80 81 0
-82 -83 0 0
-82 -84 0 0
-83 -84 0 0
82 83 84 0
-85 -86 0 0
-85 -87 0 0
-86 -87 0 0
85 86 87 0
-88 -89 0 0
-88 -90 0 0
-89 -90 0 0
88 89 90 0
-31 -1 0 0
-32 -2 0 0
-33 -3 0 0
-37 -1 0 0
-38 -2 0 0
-39 -3 0 0
-82 -1 0 0
-83 -2 0 0
-84 -3 0 0
-88 -1 0 0
-89 -2 0 0
-90 -3 0 0
-40 -4 0 0
-41 -5 0 0
-42 -6 0 0
-52 -4 0 0
-53 -5 0 0
-54 -6 0 0
-61 -4 0 0
-62 -5 0 0
-63 -6 0 0
-70 -4 0 0
-71 -5 0 0
-72 -6 0 0
-79 -4 0 0
-80 -5 0 0
-81 -6 0 0
-46 -7 0 0
-47 -8 0 0
-48 -9 0 0
-73 -7 0 0
-74 -8 0 0
-75 -9 0 0
-76 -7 0 0
-77 -8 0 0
-78 -9 0 0
-79 -7 0 0
-80 -8 0 0
-81 -9 0 0
-34 -10 0 0
-35 -11 0 0
-36 -12 0 0
-52 -10 0 0
-53 -11 0 0
-54 -12 0 0
-67 -10 0 0
-68 -11 0 0
-69 -12 0 0
-73 -10 0 0
-74 -11 0 0
-75 -12 0 0
-85 -10 0 0
-86 -11 0 0
-87 -12 0 0
-46 -13 0 0
-47 -14 0 0
-48 -15 0 0
-49 -13 0 0
-50 -14 0 0
-51 -15 0 0
-55 -13 0 0
-56 -14 0 0
-57 -15 0 0
-85 -13 0 0
-86 -14 0 0
-87 -15 0 0
-37 -16 0 0
-38 -17 0 0
-39 -18 0 0
-55 -16 0 0
-56 -17 0 0
-57 -18 0 0
-31 -19 0 0
-32 -20 0 0
-33 -21 0 0
-43 -19 0 0
-44 -20 0 0
-45 -21 0 0
-64 -19 0 0
-65 -20 0 0
-66 -21 0 0
-79 -19 0 0
-80 -20 0 0
-81 -21 0 0
-85 -19 0 0
-86 -20 0 0
-87 -21 0 0
-40 -22 0 0
-41 -23 0 0
-42 -24 0 0
-61 -22 0 0
-62 -23 0 0
-63 -24 0 0
-37 -25 0 0
-38 -26 0 0
-39 -27 0 0
-49 -25 0 0
-50 -26 0 0
-51 -27 0 0
-61 -25 0 0
-62 -26 0 0
-63 -27 0 0
-67 -25 0 0
-68 -26 0 0
-69 -27 0 0
-76 -25 0 0
-77 -26 0 0
-78 -27 0 0
-43 -28 0 0
-44 -29 0 0
-45 -30 0 0
-55 -28 0 0
-56 -29 0 0
-57 -30 0 0
-58 -28 0 0
-59 -29 0 0
-60 -30 0 0
-82 -28 0 0
-83 -29 0 0
-84 -30 0 0
-67 -31 0 0
-68 -32 0 0
-69 -33 0 0
-73 -31 0 0
-74 -32 0 0
-75 -33 0 0
-82 -31 0 0
-83 -32 0 0
-84 -33 0 0
-64 -34 0 0
-65 -35 0 0
-66 -36 0 0
-61 -37 0 0
-62 -38 0 0
-63 -39 0 0
-70 -37 0 0
-71 -38 0 0
-72 -39 0 0
-67 -40 0 0
-68 -41 0 0
-69 -42 0 0
-79 -40 0 0
-80 -41 0 0
-81 -42 0 0
-85 -40 0 0
-86 -41 0 0
-87 -42 0 0
-64 -43 0 0
-65 -44 0 0
-66 -45 0 0
-73 -43 0 0
-74 -44 0 0
-75 -45 0 0
-82 -43 0 0
-83 -44 0 0
-84 -45 0 0
-64 -46 0 0
-65 -47 0 0
-66 -48 0 0
-85 -46 0 0
-86 -47 0 0
-87 -48 0 0
-88 -46 0 0
-89 -47 0 0
-90 -48 0 0
-79 -49 0 0
-80 -50 0 0
-81 -51 0 0
-76 -52 0 0
-77 -53 0 0
-78 -54 0 0
-85 -52 0 0
-86 -53 0 0
-87 -54 0 0
-73 -58 0 0
-74 -59 0 0
-75 -60 0 0
-88 -58 0 0
-89 -59 0 0
-90 -60 0 0